Minimize
 obj: 0
Subject to

\true constraints
   85 X1
 +    94 X2
 +    88 X3
 +    78 X4
 +    89 X5
 +    96 X6
 +    90 X7
 +    85 X8
 +    91 X9
 +    78 X10
< 437.000000

\multiple objectives
 -  78 X1
 -    86 X2
 -    76 X3
 -    84 X4
 -    97 X5
 -    64 X6
 -    82 X7
 -    76 X8
 -    94 X9
 -    64 X10
< 1
 -  81 X1
 -    75 X2
 -    97 X3
 -    99 X4
 -    85 X5
 -    78 X6
 -    61 X7
 -    90 X8
 -    91 X9
 -    66 X10
< 2
 -  72 X1
 -    80 X2
 -    97 X3
 -    82 X4
 -    70 X5
 -    79 X6
 -    83 X7
 -    89 X8
 -   100 X9
 -    73 X10
< 3
 -  86 X1
 -    62 X2
 -    69 X3
 -    71 X4
 -    90 X5
 -    73 X6
 -    92 X7
 -    99 X8
 -    75 X9
 -    60 X10
< 4
 -  81 X1
 -    73 X2
 -    99 X3
 -    96 X4
 -    83 X5
 -    63 X6
 -    71 X7
 -    75 X8
 -    84 X9
 -    87 X10
< 5
 -  76 X1
 -    98 X2
 -    66 X3
 -    63 X4
 -    96 X5
 -    67 X6
 -    98 X7
 -    97 X8
 -    76 X9
 -    84 X10
< 6

BINARY
X1
X2
X3
X4
X5
X6
X7
X8
X9
X10
END
